experiments/isaplanner_proving/isaplanner_with_cs/prop_16.smt20.smt2.log
13:07:30 [WARN] Collecting statistics
13:07:30 [WARN]  ex is: Z
13:07:30 [WARN]  ex is: (S Z)
13:07:30 [WARN]  ex is: (S (S Z))
13:07:30 [WARN]  ex is: nil
13:07:30 [WARN]  ex is: (cons autovar_Nat_0 nil)
13:07:30 [WARN]  ex is: (cons autovar_Nat_1 (cons autovar_Nat_0 nil))
13:07:30 [WARN] Proof mode: false
13:07:30 [WARN]  ex is: Z
13:07:30 [WARN]  ex is: (S Z)
13:07:30 [WARN]  ex is: (S (S Z))
13:07:30 [WARN]  ex is: nil
13:07:30 [WARN]  ex is: (cons autovar_Nat_0 nil)
13:07:30 [WARN]  ex is: (cons autovar_Nat_1 (cons autovar_Nat_0 nil))
13:07:30 [WARN] Proof mode: false
13:07:30 [WARN] proved: (last (cons Z ?ts_ph_list_0)) => (last ?ts_ph_list_0)
13:07:30 [WARN] proved: (last ?ts_ph_list_0) => (last (cons Z ?ts_ph_list_0))
